
Gurobi 10.0.3 (linux64, gurobi_cl) logging started Mon Mar  4 14:42:58 2024

Set parameter Username
Set parameter LogFile to value "gurobi.log"

Gurobi 10.0.3 (linux64, gurobi_cl) logging started Mon Mar  4 14:45:00 2024

Set parameter Username
Set parameter LogFile to value "gurobi.log"
